!PBE0 nososcf NoRI
%SCF Guess HCore
     DIISMaxIt -1
end
%TDDFT NROOTS 10
       DOSOC TRUE
end
%basis
        GTOName "../../../basis_orca"
end
* xyz 0 1
  H         4.9665572581        3.9999998603        4.4143101040
  H         3.0334427283        3.9999998977        4.4143100662
  S         4.0000000118        4.0000002425        3.4705917677
*
