!PBE0 nososcf NoRI
%SCF Guess HCore
     DIISMaxIt -1
end
%TDDFT NROOTS 10
       DOSOC TRUE
end
%basis
        GTOName "../../../basis_orca"
end
* xyz  0 1 
  F         3.2935082407        3.9999999965        3.9999999964
  F         4.7064917593        4.0000000035        4.0000000036
*
