!PBE0 nososcf NoRI
%SCF Guess HCore
     DIISMaxIt -1
end
%TDDFT NROOTS 10
       DOSOC TRUE
end
%basis
        GTOName "../../../basis_orca"
end
* xyz 0 1  
F         3.5337950833        4.0000000098        4.0000000060
  H         4.4662057308        3.9999999902        3.9999999940
*
