!PBE0 nososcf NoRI
%SCF Guess HCore
     DIISMaxIt -1
end
%TDDFT NROOTS 10
       DOSOC TRUE
end
%basis
        GTOName "../../../basis_orca"
end
* xyz 0 1 
 I         3.1842678918        4.0000000003        4.0000000000
  H         4.8157276259        3.9999999997        4.0000000000
*
