!PBE0 nososcf NoRI
%SCF Guess HCore
     DIISMaxIt -1
end
%TDDFT NROOTS 10
       DOSOC TRUE
end
%basis
        GTOName "../../../basis_orca"
end
*xyz 0 1
Cl         3.0034974342        4.0000021725        4.0000041401
 Cl         4.9965025658        3.9999978275        3.9999958599
*
