!PBE0 nososcf NoRI
%SCF Guess HCore
     DIISMaxIt -1
end
%TDDFT NROOTS 10
       DOSOC TRUE
end
%basis
        GTOName "../../../basis_orca"
end
*xyz 0 1 
 I         2.6728189984        4.0000000000        4.0000000001
  I         5.3271810016        4.0000000000        3.9999999999
*
