!PBE0 nososcf NoRI
%SCF Guess HCore
     DIISMaxIt -1
end
%TDDFT NROOTS 10
       DOSOC TRUE
end
%basis
        GTOName "../../../basis_orca"
end
* xyz 0 1 
Br         2.8790054817        3.9999999776        4.0000001317
 Br         5.1209945183        4.0000000224        3.9999998683
*
