!PBE0 nososcf NoRI
%SCF Guess HCore
     DIISMaxIt -1
end
%TDDFT NROOTS 10
       DOSOC TRUE
end
%basis
        GTOName "../../../basis_orca"
end
* xyz 0 1  
Br         3.2843776774        3.9999999804        4.0000000286
  H         4.7156222835        4.0000000195        3.9999999715
*
