!PBE0 nososcf NoRI
%SCF Guess HCore
     DIISMaxIt -1
end
%TDDFT NROOTS 10
	DOSOC TRUE
end
%basis
        GTOName "../../../basis_orca"
end
* xyz 0 1 
  Te  5.24152870664671      4.92538287485266      3.61866960852250
  C   3.92764012847789      3.58180082675130      4.00271049915706
  H   3.32513271233732      3.13421223862917      3.22264052949392
  H   3.74963704233808      3.23117899386687      5.01130420062652
*
