!PBE0 nososcf NoRI
%SCF Guess HCore
     DIISMaxIt -1
end
%TDDFT NROOTS 10
       DOSOC TRUE
end
%basis
        GTOName "../../../basis_orca"
end
* xyz 0 1 
 Cl         3.3554191721        4.0000000216        4.0000000047
  H         4.6445807619        3.9999999784        3.9999999953
*
